unsat
(:max-memory         18.11
 :memory             17.94
 :nlsat-conflicts    1
 :nlsat-propagations 3
 :nlsat-stages       1
 :num-allocs         8262
 :rlimit-count       4028
 :time               0.00
 :total-time         0.01)
